(set-logic QF_S)
(declare-fun var0 () Int)
(declare-fun var1 () String)
(declare-fun var2 () Int)
(declare-fun var3 () Int)
(declare-fun var4 () String)
(declare-fun var5 () Int)
(declare-fun var6 () String)
(declare-fun var7 () String)
(assert (not (> var0 171)))
(assert (str.in.re (str.substr var1 var2 var3) (re.+ (re.* re.allchar))))
(assert (> (str.to.int (str.at var4 var5)) (str.indexof var6 var7 var0)))
(assert (<= (str.indexof var6 var6 var3) (str.indexof var1 "HT#~<qDE""w" var5)))
(check-sat)